59
64
106
96
21
107
68
37
69
56
94
50
6
89
49
66
100
79
35
102
109
108
43
77
61
103
63
12
44
91
10
76
72
82
58
48
0
57
93
13
29
47
104
20
78
71
31
39
7
15
27
3
26
22
70
92
87
1
11
38
54
98
90
67
32
105
33
86
34
28
88
9
65
25
51
16
14
46
85
41
24
45
4
42
110
60
19
17
101
18
74
30
52
36
8
62
97
83
95
5
